job_count = 20 ;
duration = [|23, 8, 1|12, 9, 6|24, 19, 9|29, 9, 3|29, 14, 2|10, 10, 9|7, 9, 5|6, 7, 7|11, 11, 5|25, 8, 7|6, 10, 4|10, 17, 1|29, 8, 2|27, 17, 9|7, 7, 9|4, 3, 4|15, 2, 8|21, 14, 8|15, 7, 1|5, 16, 5|] ;
machine_count = 3 ;
cost = [|12, 34, 52|13, 29, 34|10, 31, 31|13, 28, 59|12, 31, 46|10, 32, 49|11, 34, 54|14, 29, 38|17, 32, 33|13, 21, 52|13, 34, 30|13, 27, 52|17, 25, 31|17, 20, 56|10, 26, 41|18, 39, 45|12, 30, 56|16, 20, 34|14, 34, 47|19, 22, 44|] ;
deadline = [44, 44, 44, 44, 44, 44, 44, 44, 44, 44, 44, 44, 44, 44, 44, 44, 44, 44, 44, 44] ;
release = [0, 0, 0, 0, 0, 0, 0, 0, 0, 0, 0, 0, 0, 0, 0, 0, 0, 0, 0, 0] ;
resource = [|5, 5, 5|6, 6, 6|3, 3, 3|9, 9, 9|4, 4, 4|1, 1, 1|4, 4, 4|8, 8, 8|4, 4, 4|9, 9, 9|3, 3, 3|7, 7, 7|4, 4, 4|2, 2, 2|6, 6, 6|2, 2, 2|4, 4, 4|2, 2, 2|3, 3, 3|9, 9, 9|] ;
capacities = [10, 10, 10] ;
